14° run output:
{
    "Function": "ClusterA300.tsp",
    "Problem dimension": [
        240,
        48,
        117,
        35,
        213,
        187,
        298,
        126,
        128,
        146,
        98,
        42,
        207,
        291,
        194,
        105,
        250,
        221,
        246,
        124,
        132,
        212,
        268,
        179,
        254,
        167,
        288,
        65,
        31,
        136,
        7,
        214,
        199,
        22,
        265,
        82,
        256,
        228,
        273,
        198,
        59,
        5,
        2,
        286,
        168,
        227,
        139,
        54,
        28,
        70,
        56,
        103,
        217,
        157,
        177,
        112,
        140,
        232,
        53,
        85,
        282,
        74,
        296,
        86,
        255,
        229,
        278,
        152,
        52,
        55,
        271,
        150,
        209,
        27,
        17,
        204,
        37,
        154,
        208,
        79,
        264,
        203,
        75,
        275,
        249,
        120,
        253,
        113,
        218,
        230,
        19,
        248,
        159,
        297,
        97,
        90,
        188,
        292,
        67,
        193,
        142,
        191,
        181,
        165,
        137,
        237,
        210,
        196,
        147,
        61,
        178,
        50,
        223,
        277,
        156,
        224,
        234,
        1,
        231,
        23,
        58,
        285,
        272,
        161,
        239,
        144,
        141,
        151,
        280,
        91,
        197,
        216,
        8,
        293,
        183,
        77,
        176,
        10,
        95,
        69,
        40,
        107,
        110,
        131,
        148,
        261,
        283,
        111,
        252,
        143,
        96,
        202,
        172,
        6,
        257,
        258,
        201,
        15,
        108,
        135,
        16,
        294,
        41,
        133,
        81,
        243,
        182,
        36,
        276,
        251,
        134,
        211,
        299,
        33,
        121,
        71,
        84,
        30,
        166,
        270,
        21,
        267,
        101,
        205,
        129,
        289,
        14,
        287,
        119,
        49,
        185,
        109,
        47,
        174,
        24,
        169,
        87,
        66,
        72,
        118,
        125,
        189,
        44,
        263,
        13,
        236,
        220,
        32,
        92,
        12,
        102,
        76,
        99,
        25,
        11,
        155,
        26,
        51,
        29,
        186,
        60,
        106,
        164,
        175,
        3,
        238,
        64,
        225,
        62,
        20,
        115,
        45,
        122,
        260,
        94,
        68,
        39,
        244,
        34,
        63,
        100,
        206,
        18,
        269,
        215,
        123,
        173,
        158,
        192,
        241,
        38,
        284,
        266,
        80,
        138,
        274,
        88,
        200,
        247,
        184,
        180,
        259,
        116,
        114,
        104,
        295,
        127,
        195,
        170,
        0,
        9,
        149,
        162,
        73,
        222,
        163,
        242,
        145,
        89,
        279,
        46,
        171,
        219,
        93,
        153,
        190,
        233,
        281,
        83,
        130,
        245,
        4,
        57,
        78,
        226,
        290,
        235,
        262,
        160,
        43
    ],
    "Global Optimum": 0,
    "Algorithm": "Genetic algorithm",
    "Parameters": {
        "population": 30,
        "offspring": 30,
        "mutation probability": 0.0033333333333333335,
        "crossover probability": 0.9
    },
    "Fitness": 293151,
    "Solution": [
        240,
        48,
        117,
        35,
        213,
        187,
        298,
        126,
        128,
        146,
        98,
        42,
        207,
        291,
        194,
        105,
        250,
        221,
        246,
        124,
        132,
        212,
        268,
        179,
        254,
        167,
        288,
        65,
        31,
        136,
        7,
        214,
        199,
        22,
        265,
        82,
        256,
        228,
        273,
        198,
        59,
        5,
        2,
        286,
        168,
        227,
        139,
        54,
        28,
        70,
        56,
        103,
        217,
        157,
        177,
        112,
        140,
        232,
        53,
        85,
        282,
        74,
        296,
        86,
        255,
        229,
        278,
        152,
        52,
        55,
        271,
        150,
        209,
        27,
        17,
        204,
        37,
        154,
        208,
        79,
        264,
        203,
        75,
        275,
        249,
        120,
        253,
        113,
        218,
        230,
        19,
        248,
        159,
        297,
        97,
        90,
        188,
        292,
        67,
        193,
        142,
        191,
        181,
        165,
        137,
        237,
        210,
        196,
        147,
        61,
        178,
        50,
        223,
        277,
        156,
        224,
        234,
        1,
        231,
        23,
        58,
        285,
        272,
        161,
        239,
        144,
        141,
        151,
        280,
        91,
        197,
        216,
        8,
        293,
        183,
        77,
        176,
        10,
        95,
        69,
        40,
        107,
        110,
        131,
        148,
        261,
        283,
        111,
        252,
        143,
        96,
        202,
        172,
        6,
        257,
        258,
        201,
        15,
        108,
        135,
        16,
        294,
        41,
        133,
        81,
        243,
        182,
        36,
        276,
        251,
        134,
        211,
        299,
        33,
        121,
        71,
        84,
        30,
        166,
        270,
        21,
        267,
        101,
        205,
        129,
        289,
        14,
        287,
        119,
        49,
        185,
        109,
        47,
        174,
        24,
        169,
        87,
        66,
        72,
        118,
        125,
        189,
        44,
        263,
        13,
        236,
        220,
        32,
        92,
        12,
        102,
        76,
        99,
        25,
        11,
        155,
        26,
        51,
        29,
        186,
        60,
        106,
        164,
        175,
        3,
        238,
        64,
        225,
        62,
        20,
        115,
        45,
        122,
        260,
        94,
        68,
        39,
        244,
        34,
        63,
        100,
        206,
        18,
        269,
        215,
        123,
        173,
        158,
        192,
        241,
        38,
        284,
        266,
        80,
        138,
        274,
        88,
        200,
        247,
        184,
        180,
        259,
        116,
        114,
        104,
        295,
        127,
        195,
        170,
        0,
        9,
        149,
        162,
        73,
        222,
        163,
        242,
        145,
        89,
        279,
        46,
        171,
        219,
        93,
        153,
        190,
        233,
        281,
        83,
        130,
        245,
        4,
        57,
        78,
        226,
        290,
        235,
        262,
        160,
        43
    ],
    "Nb of functions evaluations": 200010,
    "Computational time in seconds": 338.21470832824707,
    "Stopping criterion in evaluations": 200000
}